c Reduced graph for queen9_9g generated by Cyril Grelier
p edge 81 1056
e 1 2
e 1 3
e 1 4
e 1 5
e 1 6
e 1 7
e 1 8
e 1 9
e 1 10
e 1 12
e 1 14
e 1 17
e 1 18
e 1 21
e 1 23
e 1 25
e 1 26
e 1 29
e 1 32
e 1 37
e 1 38
e 1 43
e 1 46
e 1 49
e 1 50
e 1 54
e 1 58
e 1 65
e 1 66
e 1 73
e 1 77
e 1 81
e 2 3
e 2 4
e 2 5
e 2 7
e 2 9
e 2 10
e 2 11
e 2 12
e 2 15
e 2 16
e 2 17
e 2 22
e 2 25
e 2 26
e 2 28
e 2 30
e 2 35
e 2 36
e 2 39
e 2 45
e 2 49
e 2 50
e 2 53
e 2 56
e 2 63
e 2 64
e 2 69
e 2 76
e 2 81
e 3 4
e 3 5
e 3 6
e 3 8
e 3 11
e 3 12
e 3 13
e 3 15
e 3 16
e 3 19
e 3 20
e 3 23
e 3 27
e 3 29
e 3 31
e 3 35
e 3 36
e 3 41
e 3 42
e 3 46
e 3 51
e 3 54
e 3 57
e 3 63
e 3 64
e 3 71
e 3 72
e 3 77
e 4 6
e 4 7
e 4 9
e 4 12
e 4 13
e 4 14
e 4 15
e 4 16
e 4 18
e 4 21
e 4 24
e 4 28
e 4 30
e 4 32
e 4 35
e 4 36
e 4 40
e 4 43
e 4 47
e 4 52
e 4 55
e 4 58
e 4 63
e 4 64
e 4 70
e 4 73
e 4 78
e 5 6
e 5 7
e 5 8
e 5 11
e 5 13
e 5 15
e 5 17
e 5 18
e 5 19
e 5 22
e 5 24
e 5 28
e 5 31
e 5 33
e 5 37
e 5 38
e 5 41
e 5 45
e 5 48
e 5 53
e 5 57
e 5 59
e 5 65
e 5 66
e 5 71
e 5 76
e 5 80
e 6 8
e 6 9
e 6 11
e 6 13
e 6 16
e 6 17
e 6 18
e 6 20
e 6 22
e 6 24
e 6 27
e 6 30
e 6 34
e 6 37
e 6 38
e 6 42
e 6 44
e 6 47
e 6 51
e 6 55
e 6 60
e 6 65
e 6 66
e 6 72
e 6 74
e 6 78
e 7 8
e 7 9
e 7 11
e 7 14
e 7 17
e 7 19
e 7 20
e 7 21
e 7 22
e 7 23
e 7 28
e 7 32
e 7 35
e 7 39
e 7 40
e 7 43
e 7 45
e 7 47
e 7 53
e 7 58
e 7 61
e 7 67
e 7 68
e 7 73
e 7 76
e 7 79
e 8 9
e 8 12
e 8 15
e 8 16
e 8 19
e 8 20
e 8 22
e 8 23
e 8 24
e 8 29
e 8 33
e 8 34
e 8 39
e 8 40
e 8 44
e 8 46
e 8 48
e 8 54
e 8 59
e 8 60
e 8 67
e 8 68
e 8 74
e 8 77
e 8 80
e 9 10
e 9 13
e 9 18
e 9 19
e 9 20
e 9 23
e 9 24
e 9 25
e 9 26
e 9 30
e 9 36
e 9 39
e 9 40
e 9 45
e 9 47
e 9 49
e 9 50
e 9 55
e 9 62
e 9 67
e 9 68
e 9 75
e 9 78
e 9 81
e 10 11
e 10 12
e 10 13
e 10 14
e 10 15
e 10 17
e 10 19
e 10 21
e 10 25
e 10 26
e 10 27
e 10 28
e 10 33
e 10 34
e 10 35
e 10 44
e 10 49
e 10 50
e 10 52
e 10 54
e 10 61
e 10 62
e 10 65
e 10 75
e 10 81
e 11 12
e 11 13
e 11 14
e 11 15
e 11 20
e 11 22
e 11 27
e 11 28
e 11 29
e 11 33
e 11 34
e 11 37
e 11 42
e 11 45
e 11 51
e 11 53
e 11 55
e 11 61
e 11 62
e 11 67
e 11 72
e 11 76
e 12 13
e 12 14
e 12 17
e 12 18
e 12 23
e 12 28
e 12 29
e 12 30
e 12 33
e 12 34
e 12 39
e 12 40
e 12 46
e 12 52
e 12 54
e 12 56
e 12 61
e 12 62
e 12 69
e 12 70
e 12 77
e 13 14
e 13 16
e 13 19
e 13 24
e 13 29
e 13 30
e 13 31
e 13 33
e 13 34
e 13 38
e 13 41
e 13 47
e 13 53
e 13 55
e 13 57
e 13 61
e 13 62
e 13 68
e 13 71
e 13 78
e 14 16
e 14 18
e 14 20
e 14 21
e 14 25
e 14 30
e 14 31
e 14 32
e 14 33
e 14 34
e 14 36
e 14 43
e 14 48
e 14 54
e 14 56
e 14 58
e 14 61
e 14 62
e 14 66
e 14 73
e 14 79
e 15 16
e 15 17
e 15 19
e 15 21
e 15 24
e 15 27
e 15 29
e 15 33
e 15 35
e 15 36
e 15 37
e 15 44
e 15 48
e 15 52
e 15 55
e 15 59
e 15 63
e 15 64
e 15 67
e 15 75
e 15 80
e 16 18
e 16 20
e 16 22
e 16 25
e 16 29
e 16 31
e 16 34
e 16 35
e 16 36
e 16 38
e 16 44
e 16 48
e 16 53
e 16 56
e 16 60
e 16 63
e 16 64
e 16 68
e 16 74
e 16 79
e 17 18
e 17 19
e 17 21
e 17 23
e 17 27
e 17 30
e 17 35
e 17 37
e 17 38
e 17 39
e 17 44
e 17 47
e 17 52
e 17 56
e 17 61
e 17 65
e 17 66
e 17 69
e 17 75
e 17 79
e 18 20
e 18 23
e 18 25
e 18 28
e 18 31
e 18 36
e 18 37
e 18 38
e 18 40
e 18 45
e 18 48
e 18 52
e 18 56
e 18 62
e 18 65
e 18 66
e 18 70
e 18 75
e 18 79
e 19 20
e 19 21
e 19 22
e 19 27
e 19 31
e 19 37
e 19 39
e 19 40
e 19 41
e 19 44
e 19 46
e 19 52
e 19 57
e 19 63
e 19 67
e 19 68
e 19 71
e 19 75
e 19 78
e 20 24
e 20 25
e 20 27
e 20 31
e 20 38
e 20 39
e 20 40
e 20 42
e 20 46
e 20 48
e 20 51
e 20 56
e 20 64
e 20 67
e 20 68
e 20 72
e 20 76
e 20 79
e 21 22
e 21 23
e 21 24
e 21 25
e 21 27
e 21 32
e 21 39
e 21 41
e 21 42
e 21 43
e 21 44
e 21 45
e 21 52
e 21 58
e 21 65
e 21 69
e 21 70
e 21 73
e 21 75
e 21 77
e 22 23
e 22 24
e 22 25
e 22 28
e 22 34
e 22 37
e 22 41
e 22 42
e 22 44
e 22 45
e 22 46
e 22 53
e 22 60
e 22 63
e 22 69
e 22 70
e 22 74
e 22 76
e 22 78
e 23 24
e 23 25
e 23 29
e 23 35
e 23 36
e 23 41
e 23 42
e 23 45
e 23 46
e 23 47
e 23 54
e 23 61
e 23 62
e 23 69
e 23 70
e 23 75
e 23 77
e 23 79
e 24 25
e 24 30
e 24 33
e 24 38
e 24 41
e 24 42
e 24 46
e 24 47
e 24 48
e 24 55
e 24 59
e 24 64
e 24 69
e 24 70
e 24 76
e 24 78
e 24 80
e 25 26
e 25 31
e 25 40
e 25 41
e 25 42
e 25 47
e 25 48
e 25 49
e 25 50
e 25 56
e 25 66
e 25 69
e 25 70
e 25 77
e 25 79
e 25 81
e 26 27
e 26 28
e 26 29
e 26 30
e 26 31
e 26 32
e 26 33
e 26 35
e 26 37
e 26 39
e 26 41
e 26 43
e 26 49
e 26 50
e 26 51
e 26 52
e 26 59
e 26 60
e 26 61
e 26 74
e 26 81
e 27 28
e 27 29
e 27 30
e 27 31
e 27 32
e 27 33
e 27 42
e 27 44
e 27 51
e 27 52
e 27 53
e 27 59
e 27 60
e 27 63
e 27 72
e 27 75
e 28 29
e 28 30
e 28 31
e 28 32
e 28 35
e 28 40
e 28 45
e 28 52
e 28 53
e 28 54
e 28 59
e 28 60
e 28 65
e 28 70
e 28 76
e 29 30
e 29 31
e 29 32
e 29 37
e 29 38
e 29 46
e 29 53
e 29 54
e 29 55
e 29 59
e 29 60
e 29 67
e 29 68
e 29 77
e 30 31
e 30 32
e 30 36
e 30 39
e 30 47
e 30 54
e 30 55
e 30 56
e 30 59
e 30 60
e 30 66
e 30 69
e 30 78
e 31 32
e 31 34
e 31 41
e 31 48
e 31 55
e 31 56
e 31 57
e 31 59
e 31 60
e 31 64
e 31 71
e 31 79
e 32 34
e 32 36
e 32 38
e 32 40
e 32 42
e 32 43
e 32 49
e 32 56
e 32 57
e 32 58
e 32 59
e 32 60
e 32 62
e 32 73
e 32 80
e 33 34
e 33 35
e 33 37
e 33 39
e 33 41
e 33 43
e 33 48
e 33 51
e 33 53
e 33 59
e 33 61
e 33 62
e 33 63
e 33 74
e 33 80
e 34 36
e 34 38
e 34 40
e 34 42
e 34 44
e 34 49
e 34 55
e 34 57
e 34 60
e 34 61
e 34 62
e 34 64
e 34 74
e 34 80
e 35 36
e 35 37
e 35 39
e 35 41
e 35 43
e 35 47
e 35 51
e 35 54
e 35 61
e 35 63
e 35 64
e 35 65
e 35 74
e 35 79
e 36 38
e 36 40
e 36 42
e 36 45
e 36 49
e 36 54
e 36 57
e 36 62
e 36 63
e 36 64
e 36 66
e 36 75
e 36 80
e 37 38
e 37 39
e 37 41
e 37 43
e 37 46
e 37 51
e 37 55
e 37 63
e 37 65
e 37 66
e 37 67
e 37 74
e 37 78
e 38 40
e 38 42
e 38 46
e 38 49
e 38 53
e 38 57
e 38 64
e 38 65
e 38 66
e 38 68
e 38 76
e 38 80
e 39 40
e 39 41
e 39 43
e 39 45
e 39 51
e 39 56
e 39 65
e 39 67
e 39 68
e 39 69
e 39 74
e 39 77
e 40 42
e 40 47
e 40 49
e 40 52
e 40 57
e 40 66
e 40 67
e 40 68
e 40 70
e 40 77
e 40 80
e 41 42
e 41 43
e 41 44
e 41 51
e 41 57
e 41 67
e 41 69
e 41 70
e 41 71
e 41 74
e 41 76
e 42 48
e 42 49
e 42 51
e 42 57
e 42 68
e 42 69
e 42 70
e 42 72
e 42 78
e 42 80
e 43 44
e 43 45
e 43 46
e 43 47
e 43 48
e 43 49
e 43 51
e 43 58
e 43 69
e 43 71
e 43 72
e 43 73
e 43 74
e 43 75
e 44 45
e 44 46
e 44 47
e 44 48
e 44 49
e 44 52
e 44 60
e 44 67
e 44 71
e 44 72
e 44 74
e 44 75
e 44 76
e 45 46
e 45 47
e 45 48
e 45 49
e 45 53
e 45 62
e 45 65
e 45 71
e 45 72
e 45 75
e 45 76
e 45 77
e 46 47
e 46 48
e 46 49
e 46 54
e 46 63
e 46 64
e 46 71
e 46 72
e 46 76
e 46 77
e 46 78
e 47 48
e 47 49
e 47 55
e 47 61
e 47 66
e 47 71
e 47 72
e 47 77
e 47 78
e 47 79
e 48 49
e 48 56
e 48 59
e 48 68
e 48 71
e 48 72
e 48 78
e 48 79
e 48 80
e 49 50
e 49 57
e 49 70
e 49 71
e 49 72
e 49 79
e 49 80
e 49 81
e 50 51
e 50 52
e 50 53
e 50 54
e 50 55
e 50 56
e 50 57
e 50 58
e 50 59
e 50 61
e 50 63
e 50 65
e 50 67
e 50 69
e 50 71
e 50 73
e 50 81
e 51 52
e 51 53
e 51 54
e 51 55
e 51 56
e 51 57
e 51 58
e 51 59
e 51 72
e 51 74
e 52 53
e 52 54
e 52 55
e 52 56
e 52 57
e 52 58
e 52 61
e 52 70
e 52 75
e 53 54
e 53 55
e 53 56
e 53 57
e 53 58
e 53 63
e 53 68
e 53 76
e 54 55
e 54 56
e 54 57
e 54 58
e 54 65
e 54 66
e 54 77
e 55 56
e 55 57
e 55 58
e 55 64
e 55 67
e 55 78
e 56 57
e 56 58
e 56 62
e 56 69
e 56 79
e 57 58
e 57 60
e 57 71
e 57 80
e 58 60
e 58 62
e 58 64
e 58 66
e 58 68
e 58 70
e 58 72
e 58 73
e 58 81
e 59 60
e 59 61
e 59 63
e 59 65
e 59 67
e 59 69
e 59 71
e 59 73
e 59 80
e 60 62
e 60 64
e 60 66
e 60 68
e 60 70
e 60 72
e 60 74
e 60 81
e 61 62
e 61 63
e 61 65
e 61 67
e 61 69
e 61 71
e 61 73
e 61 79
e 62 64
e 62 66
e 62 68
e 62 70
e 62 72
e 62 75
e 62 81
e 63 64
e 63 65
e 63 67
e 63 69
e 63 71
e 63 73
e 63 78
e 64 66
e 64 68
e 64 70
e 64 72
e 64 76
e 64 81
e 65 66
e 65 67
e 65 69
e 65 71
e 65 73
e 65 77
e 66 68
e 66 70
e 66 72
e 66 77
e 66 81
e 67 68
e 67 69
e 67 71
e 67 73
e 67 76
e 68 70
e 68 72
e 68 78
e 68 81
e 69 70
e 69 71
e 69 73
e 69 75
e 70 72
e 70 79
e 70 81
e 71 72
e 71 73
e 71 74
e 72 80
e 72 81
e 73 74
e 73 75
e 73 76
e 73 77
e 73 78
e 73 79
e 73 80
e 73 81
e 74 75
e 74 76
e 74 77
e 74 78
e 74 79
e 74 80
e 74 81
e 75 76
e 75 77
e 75 78
e 75 79
e 75 80
e 75 81
e 76 77
e 76 78
e 76 79
e 76 80
e 76 81
e 77 78
e 77 79
e 77 80
e 77 81
e 78 79
e 78 80
e 78 81
e 79 80
e 79 81
e 80 81
